c A SAT instance generated from a 3-CNF formula that had 33 clauses and 11 variables
p cnf 11 33
-3 2 -4 0
6 2 -3 0
-3 -8 -11 0
7 3 -1 0
-2 1 -5 0
-5 9 6 0
-10 3 5 0
9 8 2 0
-10 -8 -9 0
-1 -8 5 0
9 -8 1 0
-8 -10 -9 0
-11 7 -5 0
-4 -8 3 0
-7 -1 6 0
7 -5 9 0
-7 -3 -6 0
-8 3 7 0
5 -7 -11 0
4 5 -9 0
8 -2 1 0
11 -8 5 0
-7 2 -3 0
-3 -10 8 0
-9 -8 -6 0
6 4 9 0
7 -8 5 0
1 -2 -4 0
-11 -8 -2 0
-7 11 -3 0
4 5 -8 0
-4 7 5 0
-3 -7 6 0
